1000 100
224 274
178 135
476 373
387 400
32 228
429 459
221 169
188 104
192 253
478 15
379 170
445 111
43 89
87 1
173 473
171 155
296 393
251 147
400 310
373 204
53 344
379 260
464 300
116 90
178 80
289 120
469 441
476 373
203 307
465 28
199 361
167 119
7 366
23 413
155 45
82 269
432 44
471 77
413 433
344 22
9 462
244 182
143 243
164 157
331 430
295 85
350 474
31 418
76 7
60 5
181 186
202 210
292 64
384 337
178 105
271 289
192 226
324 198
321 159
9 359
428 151
64 63
318 261
477 347
359 271
324 358
7 283
292 298
152 105
331 385
419 314
18 233
62 195
407 347
456 319
227 214
468 471
476 244
20 133
111 81
319 293
310 450
303 177
393 22
388 40
416 148
24 485
176 116
356 444
318 307
399 76
92 46
63 364
55 52
181 283
123 478
61 10
129 284
384 145
473 494
